data/instances/vrp_files/train_66.vrp
NAME : 66
COMMENT : Generated instance No. 66
TYPE : CVRP
DIMENSION : 21
EDGE_WEIGHT_TYPE : EUC_2D
CAPACITY : 30
NODE_COORD_SECTION
 1 531 537
 2 358 912
 3 565 182
 4 139 576
 5 761 781
 6 275 204
 7 16 679
 8 76 420
 9 601 937
 10 311 249
 11 654 619
 12 332 928
 13 844 223
 14 239 512
 15 773 44
 16 693 648
 17 231 681
 18 940 46
 19 319 438
 20 899 962
 21 444 750
DEMAND_SECTION
1 0
2 5
3 4
4 8
5 4
6 10
7 2
8 3
9 6
10 8
11 8
12 9
13 7
14 2
15 8
16 7
17 8
18 3
19 7
20 10
21 9
DEPOT_SECTION
 1
 -1
EOF